CPXPARAM_MIP_Strategy_NodeSelect#P39#1#9.259316#1.000000
CPXPARAM_MIP_Strategy_NodeSelect#P39#2#6.319934#0.682549
CPXPARAM_MIP_Strategy_NodeSelect#P39#3#1.644970#0.177656
CPXPARAM_MIP_Strategy_VariableSelect#P46#0#1.645013#0.177660
CPXPARAM_MIP_Strategy_VariableSelect#P46#1#2.471331#0.266902
CPXPARAM_MIP_Strategy_VariableSelect#P46#2#4.609179#0.497788
CPXPARAM_MIP_Strategy_VariableSelect#P46#3#1.888135#0.203917
